GLPSOL--GLPK LP/MIP Solver 5.0
Parameter(s) specified in the command line:
 --lp ../modeles/10_229.lp --log 10_229.log
Reading problem data from '../modeles/10_229.lp'...
2331 rows, 4600 columns, 16080 non-zeros
2290 integer variables, all of which are binary
6947 lines were read
GLPK Integer Optimizer 5.0
2331 rows, 4600 columns, 16080 non-zeros
2290 integer variables, all of which are binary
Preprocessing...
2260 constraint coefficient(s) were reduced
2331 rows, 4590 columns, 16070 non-zeros
2290 integer variables, all of which are binary
Scaling...
 A: min|aij| =  7.628e-05  max|aij| =  4.000e+00  ratio =  5.244e+04
GM: min|aij| =  6.608e-02  max|aij| =  1.513e+01  ratio =  2.290e+02
EQ: min|aij| =  4.367e-03  max|aij| =  1.000e+00  ratio =  2.290e+02
2N: min|aij| =  3.906e-03  max|aij| =  1.752e+00  ratio =  4.486e+02
Constructing initial basis...
Size of triangular part is 2331
Solving LP relaxation...
GLPK Simplex Optimizer 5.0
2331 rows, 4590 columns, 16070 non-zeros
      0: obj =   2.000000000e+01 inf =   4.950e+01 (21)
    149: obj =   4.996281465e-01 inf =   0.000e+00 (0)
*   446: obj =  -3.161117176e+00 inf =   5.415e-16 (0)
OPTIMAL LP SOLUTION FOUND
Integer optimization begins...
Long-step dual simplex will be used
+   446: mip =     not found yet >=              -inf        (1; 0)
+   739: >>>>>  -3.161117176e+00 >=  -3.161117176e+00 < 0.1% (290; 0)
+   739: mip =  -3.161117176e+00 >=     tree is empty   0.0% (0; 579)
INTEGER OPTIMAL SOLUTION FOUND
Time used:   1.1 secs
Memory used: 6.7 Mb (7034654 bytes)
